$rem
 JOBTYPE SP
 EXCHANGE  GENERAL
 UNRESTRICTED        TRUE
 SPIN_FLIP           TRUE
 RPA                 FALSE
 BASIS 6-31G**
 CIS_N_ROOTS         8
 CIS_CONVERGENCE     6
 MAX_CIS_CYCLES      100
 CIS_DER_NUMSTATE   2
 CIS_DER_COUPLE 		 TRUE

 SCF_ALGORITHM diis
 SCF_MAX_CYCLES 150
 SCF_CONVERGENCE 6
 WAVEFUNCTION_ANALYSIS FALSE
 SYM_IGNORE TRUE
 SYMMETRY   FALSE
 MEM_TOTAL   16000 
 MEM_STATIC    10000
$end


$xc_functional
X HF 0.5
X S 0.08
X B 0.42
C VWN 0.19
C LYP 0.81
$end

$molecule
0 3
